30
0   202   205
1   207   207
2   207   201
3   203   201
4   104   107
5   104   104
6   106   104
7   107   102
8   51   54
9   51   57
10   54   54
11   55   57
12   32   26
13   31   29
14   28   31
15   32   27
16   17   13
17   15   13
18   13   13
19   18   17
20   1   4
21   6   2
22   4   6
23   1   5
24   2   7
25   4   4
26   5   2
27   3   2
28   6   2
29   7   4
400
